1
1000
45
150 2
151 3
152 4
153 2
154 2
155 1
156 7
157 6
158 4
159 3
161 4
162 3
163 1
164 3
165 4
166 2
167 1
168 3
170 4
171 1
172 3
173 2
174 1
175 1
176 2
177 2
178 1
180 3
181 3
182 3
183 2
184 3
185 6
186 4
187 2
188 1
189 3
190 3
191 3
192 2
193 3
196 2
197 2
199 1
200 2
